nbGenes = 10;
preference = [[0 72 86 91 91 64 84 35 88 82 ]
[28 0 91 65 24 26 82 67 89 24 ]
[14 9 0 98 18 59 77 68 26 12 ]
[9 35 2 0 95 14 6 56 52 28 ]
[9 76 82 5 0 62 13 55 80 42 ]
[36 74 41 86 38 0 41 44 24 28 ]
[16 18 23 94 87 59 0 66 31 61 ]
[65 33 32 44 45 56 34 0 40 9 ]
[12 11 74 48 20 76 69 60 0 20 ]
[18 76 88 72 58 72 39 91 80 0 ]
];
